[runlim] version:		2.0.0rc12
[runlim] host:			ap-Precision-7550
[runlim] time limit:		311040000 seconds
[runlim] real time limit:	600 seconds
[runlim] space limit:		14000 MB
[runlim] argv[0]:		python3
[runlim] argv[1]:		cp_no.py
[runlim] argv[2]:		graph06
[runlim] start:			Wed Mar 25 06:00:47 2026
[runlim] child:			70697
--- Building model for 400 variables ---
--- Solving with CP Optimizer (Integer Mode) ---
 ! --------------------------------------------------- CP Optimizer 22.1.1.0 --
 ! Minimization problem - 400 variables, 2170 constraints
 ! LogVerbosity         = Terse
 ! Initial process time : 0.01s (0.01s extraction + 0.00s propagation)
 !  . Log search space  : 2034.6 (before), 2034.6 (after)
 !  . Memory usage      : 1.2 MB (before), 1.2 MB (after)
 ! Using parallel search with 12 workers.
 ! ----------------------------------------------------------------------------
 !          Best Branches  Non-fixed    W       Branch decision
                        0        400                 -
 + New bound is 0
 ! ----------------------------------------------------------------------------
 ! Search completed, model has no solution.
 ! Best bound             : 0
 ! ----------------------------------------------------------------------------
 ! Number of branches     : 0
 ! Number of fails        : 0
 ! Total memory usage     : 5.3 MB (5.0 MB CP Optimizer + 0.3 MB Concert)
 ! Time spent in solve    : 0.01s (0.00s engine + 0.01s extraction)
 ! ----------------------------------------------------------------------------
No valid solution: Infeasible
Total time: 0.09s
Memory used: 27.59 MB
[runlim] end:			Wed Mar 25 06:00:47 2026
[runlim] status:		ok
[runlim] result:		0
[runlim] children:		2
[runlim] processes:		3
[runlim] real:			0.17 seconds
[runlim] time:			0.09 seconds
[runlim] space:			44 MB
[runlim] load:			8.01 maximum
[runlim] samples:		2
